%%% static parameters %%%
timespan = 1;
Fact = [2];
Distr1 = [5];
Distr2 = [10];
Clients_N = [100];
Demand_W = [15];
Lt0 = [4];
Lt1 = [4];
SS_ = [0.85];
DS_D = [8];
K = [200];
MA = [500];
%%% dynamic parameters %%%
lost_ratio_sales_ret_th = 0.6149039370249509;
lost_ratio_sales_ret_w = 79;
lost_ratio_sales_dis_th = 0.16455355300425245;
lost_ratio_sales_dis_w = 45;
lost_ratio_sales_fac_th = 0.42331572603424283;
lost_ratio_sales_fac_w = 84;
stock_customer_MA_mean_relative_th = 0.23311337162749457;
stock_customer_MA_mean_relative_w = 75;
stock_distributor_MA_mean_relative_th = 0.5805747342711663;
stock_distributor_MA_mean_relative_w = 13;
stock_retailer_MA_mean_relative_th = 0.08697172971009293;
stock_retailer_MA_mean_relative_w = 2;
stock_factory_MA_mean_relative_th = 0.26139094131197926;
stock_factory_MA_mean_relative_w = 13;
